(declare-fun temp10431_1 () (_ BitVec 64))
(declare-fun var154683 () (_ BitVec 64))
(declare-fun k!0 () Bool)
(declare-fun ARGNAME_source_NAMEEND_LEN () (_ BitVec 64))
(declare-fun ARGNAME_destination_NAMEEND_LEN () (_ BitVec 64))
(declare-fun temp10431_3 () (_ BitVec 64))
(declare-fun temp10431_2 () (_ BitVec 64))
(declare-fun temp10431_4 () (_ BitVec 64))
(declare-fun var266826 () (_ BitVec 64))
(declare-fun var266828 () (_ BitVec 64))
(declare-fun temp10431_6 () (_ BitVec 64))
(declare-fun temp10431_5 () (_ BitVec 64))
(declare-fun temp10431_7 () (_ BitVec 64))
(declare-fun var594506 () (_ BitVec 64))
(declare-fun var594508 () (_ BitVec 64))
(declare-fun temp10431_9 () (_ BitVec 64))
(declare-fun temp10431_8 () (_ BitVec 64))
(declare-fun temp10431_10 () (_ BitVec 64))
(declare-fun var1053642 () (_ BitVec 64))
(declare-fun temp10431_12 () (_ BitVec 64))
(declare-fun temp10431_11 () (_ BitVec 64))
(declare-fun temp10431_13 () (_ BitVec 64))
(declare-fun var1512394 () (_ BitVec 64))
(declare-fun temp10431_14 () (_ BitVec 64))
(declare-fun var1905226 () (_ BitVec 64))
(declare-fun temp10431_15 () (_ BitVec 64))
(declare-fun var3347018 () (_ BitVec 64))
(declare-fun temp10431_16 () (_ BitVec 64))
(declare-fun ARGNAME_input_NAMEEND_DIM () (_ BitVec 64))
(declare-fun var154805 () (_ BitVec 64))
(declare-fun temp10431_17 () (_ BitVec 64))
(declare-fun temp10431_19 () (_ BitVec 64))
(declare-fun temp10431_18 () (_ BitVec 64))
(declare-fun temp10431_20 () (_ BitVec 64))
(declare-fun var4788810 () (_ BitVec 64))
(declare-fun var4788812 () (_ BitVec 64))
(declare-fun temp10431_22 () (_ BitVec 64))
(declare-fun temp10431_21 () (_ BitVec 64))
(declare-fun temp10431_23 () (_ BitVec 64))
(declare-fun var5706314 () (_ BitVec 64))
(declare-fun var5706316 () (_ BitVec 64))
(declare-fun temp10431_25 () (_ BitVec 64))
(declare-fun temp10431_24 () (_ BitVec 64))
(declare-fun temp10431_26 () (_ BitVec 64))
(declare-fun var6558282 () (_ BitVec 64))
(declare-fun var6558284 () (_ BitVec 64))
(declare-fun temp10431_28 () (_ BitVec 64))
(declare-fun temp10431_27 () (_ BitVec 64))
(declare-fun var7410629 () (_ BitVec 64))
(declare-fun temp10431_29 () (_ BitVec 64))
(declare-fun temp10431_30 () (_ BitVec 64))
(declare-fun var7476170 () (_ BitVec 64))
(declare-fun temp10431_32 () (_ BitVec 64))
(declare-fun temp10431_31 () (_ BitVec 64))
(declare-fun temp10431_34 () (_ BitVec 64))
(declare-fun temp10431_33 () (_ BitVec 64))
(declare-fun temp10431_36 () (_ BitVec 64))
(declare-fun temp10431_35 () (_ BitVec 64))
(declare-fun temp10431_38 () (_ BitVec 64))
(declare-fun temp10431_37 () (_ BitVec 64))
(declare-fun var154934 () (_ BitVec 64))
(declare-fun var9046905 () (_ BitVec 64))
(declare-fun temp10431_40 () (_ BitVec 64))
(declare-fun temp10431_39 () (_ BitVec 64))
(declare-fun var9112897 () (_ BitVec 64))
(declare-fun var9112898 () (_ BitVec 64))
(declare-fun temp10431_41 () (_ BitVec 64))
(declare-fun temp10431_42 () (_ BitVec 64))
(declare-fun var9178439 () (_ BitVec 64))
(declare-fun var9243986 () (_ BitVec 64))
(declare-fun temp10431_43 () (_ BitVec 64))
(declare-fun var10249098 () (_ BitVec 64))
(assert (= var154683
   (ite (= ARGNAME_source_NAMEEND_LEN ARGNAME_destination_NAMEEND_LEN)
        #x0000000000000001
        #x0000000000000000)))
(assert (= temp10431_1 #x0000000000000001))
(assert (= var154683 temp10431_1))
(assert (= temp10431_3 #x0000000000000000))
(assert (= temp10431_2 temp10431_3))
(assert (= temp10431_4 #x0000000000000005))
(assert (= var266826 temp10431_4))
(assert (= var266828 var266826))
(assert (= temp10431_6 #x0000000000000000))
(assert (= temp10431_5 temp10431_6))
(assert (= temp10431_7 #x0000000000000005))
(assert (= var594506 temp10431_7))
(assert (= var594508 var594506))
(assert (= temp10431_9 #x0000000000000000))
(assert (= temp10431_8 temp10431_9))
(assert (= temp10431_10 #x0000000000000000))
(assert (= var1053642 temp10431_10))
(assert (= temp10431_12 #x0000000000000000))
(assert (= temp10431_11 temp10431_12))
(assert (= temp10431_13 #x0000000000000000))
(assert (= var1512394 temp10431_13))
(assert (= temp10431_14 #x0000000000000005))
(assert (= var1905226 temp10431_14))
(assert (= temp10431_15 #x0000000000000005))
(assert (= var3347018 temp10431_15))
(assert (= temp10431_16 #x0000000000000000))
(assert (= var154805
   (ite (= ARGNAME_input_NAMEEND_DIM temp10431_16)
        #x0000000000000001
        #x0000000000000000)))
(assert (= temp10431_17 #x0000000000000000))
(assert (= var154805 temp10431_17))
(assert (= temp10431_19 #x0000000000000000))
(assert (= temp10431_18 temp10431_19))
(assert (= temp10431_20 #x0000000000000005))
(assert (= var4788810 temp10431_20))
(assert (= var4788812 var4788810))
(assert (= temp10431_22 #x0000000000000000))
(assert (= temp10431_21 temp10431_22))
(assert (= temp10431_23 #x0000000000000005))
(assert (= var5706314 temp10431_23))
(assert (= var5706316 var5706314))
(assert (= temp10431_25 #x0000000000000000))
(assert (= temp10431_24 temp10431_25))
(assert (= temp10431_26 #x0000000000000005))
(assert (= var6558282 temp10431_26))
(assert (= var6558284 var6558282))
(assert (= temp10431_28 #x0000000000000000))
(assert (= temp10431_27 temp10431_28))
(assert (= var7410629
   (ite (bvslt temp10431_27 ARGNAME_source_NAMEEND_LEN)
        #x0000000000000001
        #x0000000000000000)))
(assert (= temp10431_29
   (ite (= var7410629 #x0000000000000001)
        ARGNAME_source_NAMEEND_LEN
        temp10431_27)))
(assert (= temp10431_30 #x0000000000000000))
(assert (= var7476170 temp10431_30))
(assert (= temp10431_32 #xffffffffffffffff))
(assert (= temp10431_31 temp10431_32))
(assert (= temp10431_34 #xffffffffffffffff))
(assert (= temp10431_33 temp10431_34))
(assert (= temp10431_36 #xffffffffffffffff))
(assert (= temp10431_35 temp10431_36))
(assert (= temp10431_38 #xffffffffffffffff))
(assert (= temp10431_37 temp10431_38))
(assert (= var154934 (bvsub ARGNAME_input_NAMEEND_DIM ARGNAME_source_NAMEEND_LEN)))
(assert (= var9046905 var154934))
(assert (= temp10431_40 #x0000000000000000))
(assert (= temp10431_39 temp10431_40))
(assert (= var9112897 var9046905))
(assert (= var9112898
   (ite (bvslt temp10431_39 var9112897) #x0000000000000001 #x0000000000000000)))
(assert (= temp10431_41 (ite (= var9112898 #x0000000000000001) var9046905 temp10431_39)))
(assert (= temp10431_42 #x0000000000000000))
(assert (= var9178439 temp10431_42))
(assert (= var9243986 var9178439))
(assert (= temp10431_43 #x000000000000003b))
(assert (= var10249098 temp10431_43))
(model-add temp10431_1 () (_ BitVec 64) #x0000000000000001)
(model-add var154683 () (_ BitVec 64) #x0000000000000001)
(model-del k!0)
(model-add ARGNAME_source_NAMEEND_LEN
           ()
           (_ BitVec 64)
           (ite k!0
                ARGNAME_destination_NAMEEND_LEN
                (bvnot ARGNAME_destination_NAMEEND_LEN)))



